(declare-fun e () String)
(declare-fun c () String)
(declare-fun d () String)
(declare-fun f () String)
(declare-fun a () String)
(declare-fun h () String)
(assert (= (str.++ c "h" e) (str.++ h "c" d)))
(assert (= a "bbch"))
(assert (= c f))

(check-sat)
